\ This file has been generated by Portfolio Optimizer
\ ENCODING=ISO-8859-1
\Problem name: Portfolio Optimization
Minimize
 obj: [ 82 portfolio_weight_0^2 + 83 portfolio_weight_1^2 + 86 portfolio_weight_2^2 + 53 portfolio_weight_3^2 + 55 portfolio_weight_4^2 + 71 portfolio_weight_5^2 + 70 portfolio_weight_6^2 + 68 portfolio_weight_7^2 + 53 portfolio_weight_8^2 + 90 portfolio_weight_9^2 + 96 portfolio_weight_10^2 + 56 portfolio_weight_11^2 + 80 portfolio_weight_12^2 + 84 portfolio_weight_13^2 + 64 portfolio_weight_14^2 + 57 portfolio_weight_15^2 + 83 portfolio_weight_16^2 + 85 portfolio_weight_17^2 + 86 portfolio_weight_18^2 + 50 portfolio_weight_19^2 + 96 portfolio_weight_20^2 + 89 portfolio_weight_21^2 + 81 portfolio_weight_22^2 + 70 portfolio_weight_23^2 + 86 portfolio_weight_24^2 + 70 portfolio_weight_25^2 + 79 portfolio_weight_26^2 + 84 portfolio_weight_27^2 + 72 portfolio_weight_28^2 + 83 portfolio_weight_29^2 + 54 portfolio_weight_30^2 ]/2
Subject To
 budget: portfolio_weight_0 + portfolio_weight_1 + portfolio_weight_2 + portfolio_weight_3 + portfolio_weight_4 + portfolio_weight_5 + portfolio_weight_6 + portfolio_weight_7 + portfolio_weight_8 + portfolio_weight_9 + portfolio_weight_10 + portfolio_weight_11 + portfolio_weight_12 + portfolio_weight_13 + portfolio_weight_14 + portfolio_weight_15 + portfolio_weight_16 + portfolio_weight_17 + portfolio_weight_18 + portfolio_weight_19 + portfolio_weight_20 + portfolio_weight_21 + portfolio_weight_22 + portfolio_weight_23 + portfolio_weight_24 + portfolio_weight_25 + portfolio_weight_26 + portfolio_weight_27 + portfolio_weight_28 + portfolio_weight_29 + portfolio_weight_30 = 1
 sector_Consumer: portfolio_weight_10 + portfolio_weight_16 + portfolio_weight_22 + portfolio_weight_25 + portfolio_weight_30 <= 0.3
 sector_Healthcare: portfolio_weight_7 + portfolio_weight_11 + portfolio_weight_13 + portfolio_weight_14 <= 0.3
 sector_Technology: portfolio_weight_0 + portfolio_weight_1 + portfolio_weight_6 + portfolio_weight_8 + portfolio_weight_12 + portfolio_weight_19 + portfolio_weight_27 + portfolio_weight_28 + portfolio_weight_29 <= 0.3
 sector_Industrials: portfolio_weight_3 + portfolio_weight_4 + portfolio_weight_15 + portfolio_weight_20 <= 0.3
 sector_Energy: portfolio_weight_2 + portfolio_weight_5 + portfolio_weight_21 + portfolio_weight_23 <= 0.3
 sector_Financials: portfolio_weight_18 + portfolio_weight_24 + portfolio_weight_26 <= 0.3
Bounds
 portfolio_weight_0 <= 1
 portfolio_weight_1 <= 1
 portfolio_weight_2 <= 1
 portfolio_weight_3 <= 1
 portfolio_weight_4 <= 1
 portfolio_weight_5 <= 1
 portfolio_weight_6 <= 1
 portfolio_weight_7 <= 1
 portfolio_weight_8 <= 1
 portfolio_weight_9 <= 1
 portfolio_weight_10 <= 1
 portfolio_weight_11 <= 1
 portfolio_weight_12 <= 1
 portfolio_weight_13 <= 1
 portfolio_weight_14 <= 1
 portfolio_weight_15 <= 1
 portfolio_weight_16 <= 1
 portfolio_weight_17 <= 1
 portfolio_weight_18 <= 1
 portfolio_weight_19 <= 1
 portfolio_weight_20 <= 1
 portfolio_weight_21 <= 1
 portfolio_weight_22 <= 1
 portfolio_weight_23 <= 1
 portfolio_weight_24 <= 1
 portfolio_weight_25 <= 1
 portfolio_weight_26 <= 1
 portfolio_weight_27 <= 1
 portfolio_weight_28 <= 1
 portfolio_weight_29 <= 1
 portfolio_weight_30 <= 1
End
